echo both

include in.partitions
log log.lammps.${p_id} append

include in.temp
include in.pressure
include in.seed
units metal
atom_style full
box tilt large
include in.box
include in.setup

minimize 1.0e-2 1.0e-3 100 1000
reset_timestep 0

# NVT
#variable kenergy equal ke
#variable penergy equal pe
#variable pres equal press
#variable tempera equal temp
#variable dense equal density
#variable entha equal enthalpy 

# fix myat1 all ave/time 10 1 10 v_kenergy v_penergy v_pres v_tempera v_dense v_entha file data/temp_press/energy${temperature}.dat


fix             1 all nve
fix             2 all temp/csvr ${temperature} ${temperature} ${tempDamp} ${seed}

velocity        all create ${temperature} ${seed} dist gaussian
run             25000

unfix           1
unfix           2

fix             1 all nph iso ${pressure} ${pressure} ${pressureDamp}
fix             2 all temp/csvr ${temperature} ${temperature} ${tempDamp} ${seed}

velocity        all create ${temperature} ${seed} dist gaussian
run             25000

unfix           1
unfix           2


