    variable        out_freq equal 500
    variable        out_freq2 equal 25000
    neigh_modify    delay 10 every 1
    include         in.na
    timestep        0.002 # According to Frenkel and Smit is 0.001
    thermo          ${out_freq}
    thermo_style    custom step temp pe ke press density vol enthalpy atoms lx ly lz xy xz yz pxx pyy pzz pxy pxz pyz
    restart         ${out_freq2} restart/metad/restart.${temperature}
